clingo version 5.2.2
Reading from ...pr180_u540_o12_N010_encoding-a_minS.lp ...
Solving...
Solving...
Solving...
Solving...
Solving...
Solving...
Solving...
Solving...
Solving...
Solving...
Solving...
Solving...
Solving...
Solving...
Solving...
Solving...
Solving...
Solving...
Solving...
Solving...
Solving...
Solving...
Solving...
Solving...
Solving...
Solving...
Solving...
Solving...
Solving...
Solving...
Solving...
Solving...
Solving...
Solving...
Solving...
Solving...
Solving...
Solving...
Solving...
Solving...
Solving...
Solving...
Solving...
Solving...
Solving...
Solving...
Solving...
Solving...
Solving...
Solving...
Solving...
Solving...
Solving...
Solving...
Solving...
Solving...
Solving...
Solving...
Solving...
Solving...
Solving...
Solving...
Solving...
Solving...
Solving...
Solving...
Solving...
Solving...
Solving...
Solving...
Solving...
Solving...
Solving...
Solving...
Solving...
Solving...
Solving...
Solving...
Solving...
Solving...
Solving...
Solving...
Solving...
Solving...
Solving...
Solving...
Solving...
Solving...
Solving...
Solving...
Solving...
Solving...
Solving...
Solving...
Solving...
Solving...
Solving...
Solving...
Solving...
Solving...
Solving...
Solving...
Solving...
Solving...
Solving...
Solving...
Solving...
Solving...
Solving...
Solving...
Solving...
Solving...
Solving...
Solving...
Solving...
Solving...
Solving...
Solving...
Solving...
Solving...
Solving...
Solving...
Solving...
Solving...
Solving...
Solving...
Solving...
Solving...
Solving...
Solving...
Solving...
Solving...
Solving...
Solving...
Solving...
Solving...
Solving...
Solving...
Solving...
Solving...
Solving...
Solving...
Solving...
Solving...
Solving...
Solving...
Solving...
Solving...
Solving...
Solving...
Solving...
Solving...
Solving...
Solving...
Solving...
Solving...
Solving...
Solving...
Solving...
Solving...
Solving...
Solving...
Solving...
Solving...
Solving...
Solving...
Solving...
Solving...
Solving...
Solving...
Solving...
Solving...
Solving...
Solving...
Solving...
Solving...
Solving...
Solving...
Solving...
Solving...
Solving...
Solving...
Solving...
Solving...
Solving...
Solving...
Solving...
Solving...
Solving...
Solving...
Solving...
Solving...
Solving...
Solving...
Solving...
Solving...
Solving...
UNKNOWN

TIME LIMIT   : 1
Models       : 0+
Calls        : 198
Time         : 1800.040s (Solving: 112.41s 1st Model: 0.00s Unsat: 112.41s)
CPU Time     : 600.964s

Choices      : 14090   
Conflicts    : 10041    (Analyzed: 9863)
Restarts     : 32       (Average: 308.22 Last: 79)
Problems     : 199      (Average Length: 2.00 Splits: 0)
Lemmas       : 9863     (Deleted: 0)
  Binary     : 622      (Ratio:   6.31%)
  Ternary    : 1100     (Ratio:  11.15%)
  Conflict   : 9863     (Average Length:   10.4 Ratio: 100.00%) 
  Loop       : 0        (Average Length:    0.0 Ratio:   0.00%) 
  Other      : 0        (Average Length:    0.0 Ratio:   0.00%) 
Backjumps    : 9863     (Average:  1.48 Max: 213 Sum:  14576)
  Executed   : 9305     (Average:  1.42 Max: 213 Sum:  14012 Ratio:  96.13%)
  Bounded    : 558      (Average:  1.01 Max:   2 Sum:    564 Ratio:   3.87%)

Rules        : 20448181 (Original: 16369269)
  Choice     : 1372    
Atoms        : 8703958  (Original: 7599067 Auxiliary: 1104891)
Bodies       : 16248710 (Original: 13337066)
  Count      : 25668    (Original: 94699)
Equivalences : 17496906 (Atom=Atom: 5467610 Body=Body: 59356 Other: 11969940)
Tight        : Yes
Variables    : 3712776  (Eliminated:    0 Frozen: 325864)
Constraints  : 13533997 (Binary:  69.9% Ternary:  27.7% Other:   2.4%)

